solution status: optimal solution found
objective value:                     115605.067321052
d11(0,0)                                            1 	(obj:0)
d11(1,1)                                            1 	(obj:0)
d11(1,2)                                            1 	(obj:0)
d11(2,4)                                            1 	(obj:0)
d11(2,7)                                            1 	(obj:0)
d11(2,10)                                           1 	(obj:0)
d11(2,11)                                           1 	(obj:0)
d11(3,13)                                           1 	(obj:0)
d11(3,14)                                           1 	(obj:0)
d11(3,16)                                           1 	(obj:0)
d11(3,17)                                           1 	(obj:0)
d11(3,19)                                           1 	(obj:0)
d11(3,20)                                           1 	(obj:0)
d11(3,22)                                           1 	(obj:0)
d11(3,23)                                           1 	(obj:0)
d11(3,24)                                           1 	(obj:0)
d11(3,25)                                           1 	(obj:0)
d11(3,26)                                           1 	(obj:0)
d11(3,27)                                           1 	(obj:0)
d11(3,28)                                           1 	(obj:0)
d11(3,29)                                           1 	(obj:0)
d11(3,30)                                           1 	(obj:0)
d11(3,31)                                           1 	(obj:0)
d11(3,32)                                           1 	(obj:0)
d11(3,33)                                           1 	(obj:0)
d11(3,34)                                           1 	(obj:0)
d11(3,35)                                           1 	(obj:0)
d11(3,36)                                           1 	(obj:0)
d11(3,37)                                           1 	(obj:0)
d11(3,38)                                           1 	(obj:0)
d12(1,3)                                            1 	(obj:0)
d12(2,6)                                            1 	(obj:0)
d12(2,9)                                            1 	(obj:0)
d12(2,12)                                           1 	(obj:0)
d21(2,4)                                            1 	(obj:0)
d21(3,13)                                           1 	(obj:0)
d21(3,14)                                           1 	(obj:0)
d21(3,15)                                           1 	(obj:0)
d21(3,16)                                           1 	(obj:0)
d21(3,17)                                           1 	(obj:0)
d21(3,19)                                           1 	(obj:0)
d21(3,22)                                           1 	(obj:0)
d21(3,23)                                           1 	(obj:0)
d21(3,25)                                           1 	(obj:0)
d21(3,31)                                           1 	(obj:0)
STE(1,1)                             4462.88886948339 	(obj:0)
STE(0,0)                                         6300 	(obj:0)
STE(1,2)                             5459.65487281668 	(obj:0)
STE(1,3)                             6409.25049158823 	(obj:0)
STE(2,4)                             2962.12286615004 	(obj:0)
STE(2,5)                             3958.88886948339 	(obj:0)
STE(2,6)                             4871.45220333338 	(obj:0)
STE(2,7)                             3958.88886948333 	(obj:0)
STE(2,8)                             4955.65487281668 	(obj:0)
STE(2,9)                             5868.21820666667 	(obj:0)
STE(2,10)                            4908.48448825488 	(obj:0)
STE(2,11)                            5905.25049158811 	(obj:0)
STE(2,12)                            6817.81382543822 	(obj:0)
STE(3,13)                            243.904659483372 	(obj:0)
STE(3,14)                            1240.67066281666 	(obj:0)
STE(3,15)                            2458.12286615004 	(obj:0)
STE(3,16)                            1240.67066281672 	(obj:0)
STE(3,17)                            2237.43666615001 	(obj:0)
STE(3,18)                            3454.88886948339 	(obj:0)
STE(3,19)                            2153.23399666671 	(obj:0)
STE(3,20)                                        3150 	(obj:0)
STE(3,21)                            4367.45220333338 	(obj:0)
STE(3,22)                            1240.67066281666 	(obj:0)
STE(3,23)                            2237.43666614995 	(obj:0)
STE(3,24)                            3454.88886948333 	(obj:0)
STE(3,25)                            2237.43666615001 	(obj:0)
STE(3,26)                             3234.2026694833 	(obj:0)
STE(3,27)                            4451.65487281668 	(obj:0)
STE(3,28)                                        3150 	(obj:0)
STE(3,29)                            4146.76600333329 	(obj:0)
STE(3,30)                            5364.21820666667 	(obj:0)
STE(3,31)                            2190.26628158824 	(obj:0)
STE(3,32)                             3187.0322849215 	(obj:0)
STE(3,33)                            4404.48448825488 	(obj:0)
STE(3,34)                            3187.03228492144 	(obj:0)
STE(3,35)                            4183.79828825473 	(obj:0)
STE(3,36)                            5401.25049158811 	(obj:0)
STE(3,37)                            4099.59561877155 	(obj:0)
STE(3,38)                            5096.36162210484 	(obj:0)
STE(3,39)                            6313.81382543822 	(obj:0)
y1(3,23)                             1095.70698300004 	(obj:0)
y1(3,25)                                  1992.796386 	(obj:0)
y1(3,26)                             1095.70698300004 	(obj:0)
y1(3,28)                                  1992.796386 	(obj:0)
y1(3,29)                             1095.70698300004 	(obj:0)
y1(3,31)                             1992.79638599989 	(obj:0)
y1(3,32)                             1095.70698300004 	(obj:0)
y1(3,34)                                  1992.796386 	(obj:0)
y1(3,35)                             1095.70698300004 	(obj:0)
y1(3,37)                                  1992.796386 	(obj:0)
y1(3,38)                             1095.70698300004 	(obj:0)
BG(3)                                      4495.91835 	(obj:10)
AVE(1)                               3199.95851117552 	(obj:0)
AVE(2)                               3265.15049132519 	(obj:0)
WB(3)                                3291.35535332476 	(obj:0)
AVE(3)                               3291.35535332476 	(obj:0)
WG(1)                                3199.95851117552 	(obj:10)
WG(2)                                3265.15049132519 	(obj:10)
BG(1)                                486.779870931556 	(obj:10)
BG(2)                                 112.69950867481 	(obj:10)
y1(1,1)                              1199.80001746495 	(obj:0)
y1(1,2)                              302.710614464987 	(obj:0)
y1(2,4)                              897.089403000015 	(obj:0)
y1(2,7)                              897.089403000015 	(obj:0)
y1(2,10)                             897.089403000015 	(obj:0)
y1(3,13)                                  1992.796386 	(obj:0)
y1(3,14)                             1095.70698300004 	(obj:0)
y1(3,16)                                  1992.796386 	(obj:0)
y1(3,17)                             1095.70698300004 	(obj:0)
y1(3,19)                                  1992.796386 	(obj:0)
y1(3,20)                             1095.70698300004 	(obj:0)
y1(3,22)                                  1992.796386 	(obj:0)
y2(1,3)                               645.52683325077 	(obj:0)
y2(2,6)                              960.592982999986 	(obj:0)
y2(2,9)                              960.592982999986 	(obj:0)
y2(2,12)                             960.592982999986 	(obj:0)
